StudentsNr = 10;
InstructorsNr = 92;
DaysNr = 2;
SlotsPerDay = 20;
AvailabilitySlotsLenght = 20;
RoomNr = 1;
ProgrammNr = 1;
DegreeNr = 1;
RolesNr = 0;
CoursesNr = 0;
InstructorsProgramm = [{1}, {1}, {1}, {1}, {1}, {1}, {1}, {1}, {1}, {1}, {1}, {1}, {1}, {1}, {1}, {1}, {1}, {1}, {1}, {1}, {1}, {1}, {1}, {1}, {1}, {1}, {1}, {1}, {1}, {1}, {1}, {1}, {1}, {1}, {1}, {1}, {1}, {1}, {1}, {1}, {1}, {1}, {1}, {1}, {1}, {1}, {1}, {1}, {1}, {1}, {1}, {1}, {1}, {1}, {1}, {1}, {1}, {1}, {1}, {1}, {1}, {1}, {1}, {1}, {1}, {1}, {1}, {1}, {1}, {1}, {1}, {1}, {1}, {1}, {1}, {1}, {1}, {1}, {1}, {1}, {1}, {1}, {1}, {1}, {1}, {1}, {1}, {1}, {1}, {1}, {1}, {1}];
InstructorRolesPerProgramm = array2d(1..ProgrammNr,{},[]);
InstructorsAvailability = [|0, 1, |1, 1, |1, 1, |0, 0, |0, 0, |1, 1, |1, 1, |0, 1, |1, 1, |0, 0, |0, 1, |0, 0, |1, 1, |0, 1, |1, 1, |0, 1, |1, 1, |0, 0, |0, 0, |1, 1, |1, 1, |0, 1, |1, 1, |1, 1, |1, 1, |1, 1, |0, 0, |1, 1, |0, 0, |0, 1, |0, 1, |1, 1, |1, 1, |0, 1, |1, 1, |0, 0, |0, 0, |1, 1, |1, 1, |0, 1, |0, 1, |1, 1, |0, 0, |0, 0, |0, 0, |1, 1, |1, 1, |0, 0, |0, 1, |1, 1, |1, 1, |0, 0, |1, 0, |1, 1, |1, 1, |0, 1, |1, 1, |1, 0, |0, 1, |1, 0, |0, 0, |0, 0, |1, 0, |1, 1, |0, 0, |1, 1, |1, 1, |0, 1, |0, 0, |0, 1, |1, 1, |0, 0, |1, 0, |1, 0, |1, 1, |0, 1, |1, 1, |0, 1, |1, 1, |1, 1, |0, 1, |0, 1, |0, 1, |1, 1, |1, 1, |1, 1, |0, 0, |1, 0, |0, 1, |1, 1, |0, 1, |1, 1|];
StudentsProgramm = [1, 1, 1, 1, 1, 1, 1, 1, 1, 1];
StudentsDegree = [1, 1, 1, 1, 1, 1, 1, 1, 1, 1];
StudentsSupervisorId = [66, 27, 67, 18, 62, 36, 55, 43, 46, 72];
StudentsCourseIds = [{}, {}, {}, {}, {}, {}, {}, {}, {}, {}];
StudentsAvailability = [|0, 0, |0, 1, |0, 0, |0, 0, |0, 0, |0, 0, |1, 1, |0, 1, |0, 1, |0, 0|];
TheoryticalMinCard = [1, 1, 1, 1, 1, 1, 1, 1, 1, 1];
CoursesInstructorIds = [];
RolesDemands = [];
RolesContinuity = [];
ExamLen = [2, 2, 2, 2, 2, 2, 2, 2, 2, 2];
LunchTsMinLen = 2;
LunchStarts = [8..13, 29..34];
SupervisorAvailable = 0;
OptimalLunchLenght = [3, 2];
OptimalStartTs = [2, 0];
OptimalFinishTs = [1, 20];
MinimizeRooms = 0;
RolesSoftContinuity = array2d(1..2,{},[]);
SameDegreeInRoom = 0;
Mergeability = 2;
